p cnf 8 24
-1 -5 0
-2 -6 0
-3 -7 0
-4 -8 0
-1 -5 0
-2 -6 0
-3 -7 0
-4 -8 0
-5 -1 0
-6 -2 0
-7 -3 0
-8 -4 0
-1 -2 0
-2 -3 0
-3 -4 0
-5 -6 0
-6 -7 0
-7 -8 0
-5 -5 0
-6 -6 0
-7 -7 0
-1 -1 0
-2 -2 0
-3 -3 0
